34 100
907871843 541213617 407535434 776749254 381455806 775788566 804348857 113823412 89932813 398681305 904494161 310140663 213990933 44934158 404909916 627851581 35810379 581913755 191330845 559072071 99708249 439050941 73425223 522046827 938138271 705515139 676530052 716702482 923452592 244320849 122725871 293898043 248534481 888859999
80106960 922696184 430355434 329421767 217312036 723185416 -944658542 501986146 -934728411 -205853722 706589589 727848727 -180384431 -266344143 -244076598 972307279 -450524000 959215223 -752391233 618344252 445545716 918121052 225548036 380903080 566629122 256482160 -722502347 530259843 126102499 -856028635 -846866907 -298168859 -464311029 -37283365
